1 51 2
-322 -641 -719 -158 -135 -739 -631 -397 -825 -293 -552 -643 -751 -582 -89 -934 -455 -396 -531 -416 -569 -75 -125 -572 -260 -950 -802 -867 -378 -473 -903 -414 -138 -784 -170 -228 -813 -826 -458 -629 -370 -221 -790 -895 -300 -319 -679 -959 -15 -859 0 
-594 -259 -279 -882 -927 -201 -325 -644 -251 -784 -467 -390 -265 -407 -936 -29 -517 -673 -465 -664 -481 -944 -847 -408 -760 -23 -250 -64 -622 -509 -65 -533 -857 -263 -868 -709 -201 -92 -573 -314 -666 -765 -283 -123 -712 -609 -256 -88 -984 -124 0 
754 1100 874 995 1071 859 1034 1117 988 1177 1147 1181 1122 937 874 926 789 1020 946 1243 1091 1210 1116 978 1177 828 948 1039 840 828 860 850 1174 913 1132 753 1127 965 1210 761 890 844 1115 1045 886 1029 1082 1056 1004 783 1 
24844 
